Pt  N  C  H                             
   1.00000000000000     
    16.6445582380788970    0.0000000000000000    0.0000000000000000
     8.3222791190394467   14.4146102689458822    0.0000000000000000
     0.0000000000000000    0.0000000000000000   24.5300749641479428
   Pt   N    C    H 
   108     3     3     3
Selective dynamics
Direct
  0.0000000000000000  0.0000000000000000  0.0203831419484359   F   F   F
  0.3333333333333357  0.1666666666666643  0.0203831419484359   F   F   F
  0.1666666666666643  0.0000000000000000  0.0203831419484359   F   F   F
  0.1666666666666643  0.1666666666666643  0.0203831419484359   F   F   F
  0.0000000000000000  0.3333333333333357  0.0203831419484359   F   F   F
  0.3333333333333357  0.5000000000000000  0.0203831419484359   F   F   F
  0.1666666666666643  0.3333333333333357  0.0203831419484359   F   F   F
  0.1666666666666643  0.5000000000000000  0.0203831419484359   F   F   F
  0.0000000000000000  0.6666666666666643  0.0203831419484359   F   F   F
  0.3333333333333357  0.8333333333333357  0.0203831419484359   F   F   F
  0.1666666666666643  0.6666666666666643  0.0203831419484359   F   F   F
  0.1666666666666643  0.8333333333333357  0.0203831419484359   F   F   F
  0.3333333333333357  0.0000000000000000  0.0203831419484359   F   F   F
  0.6666666666666643  0.1666666666666643  0.0203831419484359   F   F   F
  0.5000000000000000  0.0000000000000000  0.0203831419484359   F   F   F
  0.5000000000000000  0.1666666666666643  0.0203831419484359   F   F   F
  0.3333333333333357  0.3333333333333357  0.0203831419484359   F   F   F
  0.6666666666666643  0.5000000000000000  0.0203831419484359   F   F   F
  0.5000000000000000  0.3333333333333357  0.0203831419484359   F   F   F
  0.5000000000000000  0.5000000000000000  0.0203831419484359   F   F   F
  0.3333333333333357  0.6666666666666643  0.0203831419484359   F   F   F
  0.6666666666666643  0.8333333333333357  0.0203831419484359   F   F   F
  0.5000000000000000  0.6666666666666643  0.0203831419484359   F   F   F
  0.5000000000000000  0.8333333333333357  0.0203831419484359   F   F   F
  0.6666666666666643  0.0000000000000000  0.0203831419484359   F   F   F
  0.0000000000000000  0.1666666666666643  0.0203831419484359   F   F   F
  0.8333333333333357  0.0000000000000000  0.0203831419484359   F   F   F
  0.8333333333333357  0.1666666666666643  0.0203831419484359   F   F   F
  0.6666666666666643  0.3333333333333357  0.0203831419484359   F   F   F
  0.0000000000000000  0.5000000000000000  0.0203831419484359   F   F   F
  0.8333333333333357  0.3333333333333357  0.0203831419484359   F   F   F
  0.8333333333333357  0.5000000000000000  0.0203831419484359   F   F   F
  0.6666666666666643  0.6666666666666643  0.0203831419484359   F   F   F
  0.0000000000000000  0.8333333333333357  0.0203831419484359   F   F   F
  0.8333333333333357  0.6666666666666643  0.0203831419484359   F   F   F
  0.8333333333333357  0.8333333333333357  0.0203831419484359   F   F   F
  0.2222222222222214  0.2222222222222214  0.1127203029797172   F   F   F
  0.2222222222222214  0.0555555555555571  0.1127203029797172   F   F   F
  0.0555555555555571  0.2222222222222214  0.1127203029797172   F   F   F
  0.0555555555555571  0.0555555555555571  0.1127203029797172   F   F   F
  0.2222222222222214  0.5555555555555571  0.1127203029797172   F   F   F
  0.2222222222222214  0.3888888888888857  0.1127203029797172   F   F   F
  0.0555555555555571  0.5555555555555571  0.1127203029797172   F   F   F
  0.0555555555555571  0.3888888888888857  0.1127203029797172   F   F   F
  0.2222222222222214  0.8888888888888857  0.1127203029797172   F   F   F
  0.2222222222222214  0.7222222222222214  0.1127203029797172   F   F   F
  0.0555555555555571  0.8888888888888857  0.1127203029797172   F   F   F
  0.0555555555555571  0.7222222222222214  0.1127203029797172   F   F   F
  0.5555555555555571  0.2222222222222214  0.1127203029797172   F   F   F
  0.5555555555555571  0.0555555555555571  0.1127203029797172   F   F   F
  0.3888888888888857  0.2222222222222214  0.1127203029797172   F   F   F
  0.3888888888888857  0.0555555555555571  0.1127203029797172   F   F   F
  0.5555555555555571  0.5555555555555571  0.1127203029797172   F   F   F
  0.5555555555555571  0.3888888888888857  0.1127203029797172   F   F   F
  0.3888888888888857  0.5555555555555571  0.1127203029797172   F   F   F
  0.3888888888888857  0.3888888888888857  0.1127203029797172   F   F   F
  0.5555555555555571  0.8888888888888857  0.1127203029797172   F   F   F
  0.5555555555555571  0.7222222222222214  0.1127203029797172   F   F   F
  0.3888888888888857  0.8888888888888857  0.1127203029797172   F   F   F
  0.3888888888888857  0.7222222222222214  0.1127203029797172   F   F   F
  0.8888888888888857  0.2222222222222214  0.1127203029797172   F   F   F
  0.8888888888888857  0.0555555555555571  0.1127203029797172   F   F   F
  0.7222222222222214  0.2222222222222214  0.1127203029797172   F   F   F
  0.7222222222222214  0.0555555555555571  0.1127203029797172   F   F   F
  0.8888888888888857  0.5555555555555571  0.1127203029797172   F   F   F
  0.8888888888888857  0.3888888888888857  0.1127203029797172   F   F   F
  0.7222222222222214  0.5555555555555571  0.1127203029797172   F   F   F
  0.7222222222222214  0.3888888888888857  0.1127203029797172   F   F   F
  0.8888888888888857  0.8888888888888857  0.1127203029797172   F   F   F
  0.8888888888888857  0.7222222222222214  0.1127203029797172   F   F   F
  0.7222222222222214  0.8888888888888857  0.1127203029797172   F   F   F
  0.7222222222222214  0.7222222222222214  0.1127203029797172   F   F   F
  0.1091246919958254  0.1128841078661312  0.2049382483313287   T   T   T
  0.1090085841062370  0.2799495160660637  0.2049947355528140   T   T   T
  0.2758723307618193  0.1124018826551085  0.2051166071896750   T   T   T
  0.2758336294603308  0.2778547505900562  0.2050344520582441   T   T   T
  0.1090952533497059  0.4456804178809214  0.2050730716607377   T   T   T
  0.1095965111254441  0.6114431895109080  0.2049604664747695   T   T   T
  0.2767217003553979  0.4423973919603146  0.2045746876758014   T   T   T
  0.2812688408611335  0.6078778907671264  0.2126000064235318   T   T   T
  0.1099654777070803  0.7775764298425361  0.2049723677887134   T   T   T
  0.1106841382359578  0.9433791052854870  0.2049864622307695   T   T   T
  0.2788695169777030  0.7781366530081507  0.2049165433559681   T   T   T
  0.2769153466544858  0.9462984137752573  0.2049907402562153   T   T   T
  0.4427545395682751  0.1124310692318501  0.2050497715460579   T   T   T
  0.4448668820257742  0.2763101268988853  0.2050823090956504   T   T   T
  0.6109187550188147  0.1127416982559225  0.2050713210051196   T   T   T
  0.6129821295397505  0.2771306068108028  0.2050939657141539   T   T   T
  0.4480673472410501  0.4419999455728900  0.2045416689320047   T   T   T
  0.4473960306672323  0.6103373439595493  0.2048434429667782   T   T   T
  0.6125919909663564  0.4448988966313672  0.2050721610973719   T   T   T
  0.6107927123960296  0.6134775585212615  0.2050164775908804   T   T   T
  0.4444483548921348  0.7794780159240670  0.2050682333408970   T   T   T
  0.4431097676006007  0.9466494034768312  0.2050874710556869   T   T   T
  0.6096851764731123  0.7809724617243838  0.2050150450999580   T   T   T
  0.6093033391858477  0.9476817933369137  0.2048655242863876   T   T   T
  0.7780466135000844  0.1125886974553007  0.2050802294816502   T   T   T
  0.7777141538097939  0.2797820021583082  0.2050200078995287   T   T   T
  0.9435139586693034  0.1128755406493569  0.2049994884946502   T   T   T
  0.9426796847765553  0.2806492437656394  0.2049958675782125   T   T   T
  0.7767497788252767  0.4473897767900875  0.2050930119754357   T   T   T
  0.7758221156295558  0.6146488147811271  0.2050913037275922   T   T   T
  0.9422586947757932  0.4475191382127190  0.2049299355324846   T   T   T
  0.9423817930674943  0.6134989821295923  0.2049791833817121   T   T   T
  0.7758930150259351  0.7806710412835608  0.2049882541624157   T   T   T
  0.7762602257842931  0.9466715257532732  0.2050141557367634   T   T   T
  0.9426790009843102  0.7793607663565615  0.2050777490848074   T   T   T
  0.9428869338009193  0.9459410814024849  0.2050153117502448   T   T   T
  0.3371945223516548  0.4921972352142275  0.3756410375445056   T   T   T
  0.2539345998091918  0.6587341292332176  0.3839891427859161   T   T   T
  0.2936182225929962  0.5911802978829848  0.2994142623451267   T   T   T
  0.2950265304591089  0.5727330394354211  0.4042701864553311   T   T   T
  0.2575756869476132  0.6633253977151410  0.3325009306106058   T   T   T
  0.3296256169217764  0.5076324263339869  0.3242003687253327   T   T   T
  0.2958321438567059  0.5684839016248017  0.4480993333928420   T   T   T
  0.2262339418545112  0.7296117135171670  0.3108539181871950   T   T   T
  0.3600831450583521  0.4490680729767526  0.2947722117196191   T   T   T
 
  0.00000000E+00  0.00000000E+00  0.00000000E+00
  0.00000000E+00  0.00000000E+00  0.00000000E+00
  0.00000000E+00  0.00000000E+00  0.00000000E+00
  0.00000000E+00  0.00000000E+00  0.00000000E+00
  0.00000000E+00  0.00000000E+00  0.00000000E+00
  0.00000000E+00  0.00000000E+00  0.00000000E+00
  0.00000000E+00  0.00000000E+00  0.00000000E+00
  0.00000000E+00  0.00000000E+00  0.00000000E+00
  0.00000000E+00  0.00000000E+00  0.00000000E+00
  0.00000000E+00  0.00000000E+00  0.00000000E+00
  0.00000000E+00  0.00000000E+00  0.00000000E+00
  0.00000000E+00  0.00000000E+00  0.00000000E+00
  0.00000000E+00  0.00000000E+00  0.00000000E+00
  0.00000000E+00  0.00000000E+00  0.00000000E+00
  0.00000000E+00  0.00000000E+00  0.00000000E+00
  0.00000000E+00  0.00000000E+00  0.00000000E+00
  0.00000000E+00  0.00000000E+00  0.00000000E+00
  0.00000000E+00  0.00000000E+00  0.00000000E+00
  0.00000000E+00  0.00000000E+00  0.00000000E+00
  0.00000000E+00  0.00000000E+00  0.00000000E+00
  0.00000000E+00  0.00000000E+00  0.00000000E+00
  0.00000000E+00  0.00000000E+00  0.00000000E+00
  0.00000000E+00  0.00000000E+00  0.00000000E+00
  0.00000000E+00  0.00000000E+00  0.00000000E+00
  0.00000000E+00  0.00000000E+00  0.00000000E+00
  0.00000000E+00  0.00000000E+00  0.00000000E+00
  0.00000000E+00  0.00000000E+00  0.00000000E+00
  0.00000000E+00  0.00000000E+00  0.00000000E+00
  0.00000000E+00  0.00000000E+00  0.00000000E+00
  0.00000000E+00  0.00000000E+00  0.00000000E+00
  0.00000000E+00  0.00000000E+00  0.00000000E+00
  0.00000000E+00  0.00000000E+00  0.00000000E+00
  0.00000000E+00  0.00000000E+00  0.00000000E+00
  0.00000000E+00  0.00000000E+00  0.00000000E+00
  0.00000000E+00  0.00000000E+00  0.00000000E+00
  0.00000000E+00  0.00000000E+00  0.00000000E+00
  0.00000000E+00  0.00000000E+00  0.00000000E+00
  0.00000000E+00  0.00000000E+00  0.00000000E+00
  0.00000000E+00  0.00000000E+00  0.00000000E+00
  0.00000000E+00  0.00000000E+00  0.00000000E+00
  0.00000000E+00  0.00000000E+00  0.00000000E+00
  0.00000000E+00  0.00000000E+00  0.00000000E+00
  0.00000000E+00  0.00000000E+00  0.00000000E+00
  0.00000000E+00  0.00000000E+00  0.00000000E+00
  0.00000000E+00  0.00000000E+00  0.00000000E+00
  0.00000000E+00  0.00000000E+00  0.00000000E+00
  0.00000000E+00  0.00000000E+00  0.00000000E+00
  0.00000000E+00  0.00000000E+00  0.00000000E+00
  0.00000000E+00  0.00000000E+00  0.00000000E+00
  0.00000000E+00  0.00000000E+00  0.00000000E+00
  0.00000000E+00  0.00000000E+00  0.00000000E+00
  0.00000000E+00  0.00000000E+00  0.00000000E+00
  0.00000000E+00  0.00000000E+00  0.00000000E+00
  0.00000000E+00  0.00000000E+00  0.00000000E+00
  0.00000000E+00  0.00000000E+00  0.00000000E+00
  0.00000000E+00  0.00000000E+00  0.00000000E+00
  0.00000000E+00  0.00000000E+00  0.00000000E+00
  0.00000000E+00  0.00000000E+00  0.00000000E+00
  0.00000000E+00  0.00000000E+00  0.00000000E+00
  0.00000000E+00  0.00000000E+00  0.00000000E+00
  0.00000000E+00  0.00000000E+00  0.00000000E+00
  0.00000000E+00  0.00000000E+00  0.00000000E+00
  0.00000000E+00  0.00000000E+00  0.00000000E+00
  0.00000000E+00  0.00000000E+00  0.00000000E+00
  0.00000000E+00  0.00000000E+00  0.00000000E+00
  0.00000000E+00  0.00000000E+00  0.00000000E+00
  0.00000000E+00  0.00000000E+00  0.00000000E+00
  0.00000000E+00  0.00000000E+00  0.00000000E+00
  0.00000000E+00  0.00000000E+00  0.00000000E+00
  0.00000000E+00  0.00000000E+00  0.00000000E+00
  0.00000000E+00  0.00000000E+00  0.00000000E+00
  0.00000000E+00  0.00000000E+00  0.00000000E+00
  0.00000000E+00  0.00000000E+00  0.00000000E+00
  0.00000000E+00  0.00000000E+00  0.00000000E+00
  0.00000000E+00  0.00000000E+00  0.00000000E+00
  0.00000000E+00  0.00000000E+00  0.00000000E+00
  0.00000000E+00  0.00000000E+00  0.00000000E+00
  0.00000000E+00  0.00000000E+00  0.00000000E+00
  0.00000000E+00  0.00000000E+00  0.00000000E+00
  0.00000000E+00  0.00000000E+00  0.00000000E+00
  0.00000000E+00  0.00000000E+00  0.00000000E+00
  0.00000000E+00  0.00000000E+00  0.00000000E+00
  0.00000000E+00  0.00000000E+00  0.00000000E+00
  0.00000000E+00  0.00000000E+00  0.00000000E+00
  0.00000000E+00  0.00000000E+00  0.00000000E+00
  0.00000000E+00  0.00000000E+00  0.00000000E+00
  0.00000000E+00  0.00000000E+00  0.00000000E+00
  0.00000000E+00  0.00000000E+00  0.00000000E+00
  0.00000000E+00  0.00000000E+00  0.00000000E+00
  0.00000000E+00  0.00000000E+00  0.00000000E+00
  0.00000000E+00  0.00000000E+00  0.00000000E+00
  0.00000000E+00  0.00000000E+00  0.00000000E+00
  0.00000000E+00  0.00000000E+00  0.00000000E+00
  0.00000000E+00  0.00000000E+00  0.00000000E+00
  0.00000000E+00  0.00000000E+00  0.00000000E+00
  0.00000000E+00  0.00000000E+00  0.00000000E+00
  0.00000000E+00  0.00000000E+00  0.00000000E+00
  0.00000000E+00  0.00000000E+00  0.00000000E+00
  0.00000000E+00  0.00000000E+00  0.00000000E+00
  0.00000000E+00  0.00000000E+00  0.00000000E+00
  0.00000000E+00  0.00000000E+00  0.00000000E+00
  0.00000000E+00  0.00000000E+00  0.00000000E+00
  0.00000000E+00  0.00000000E+00  0.00000000E+00
  0.00000000E+00  0.00000000E+00  0.00000000E+00
  0.00000000E+00  0.00000000E+00  0.00000000E+00
  0.00000000E+00  0.00000000E+00  0.00000000E+00
  0.00000000E+00  0.00000000E+00  0.00000000E+00
  0.00000000E+00  0.00000000E+00  0.00000000E+00
  0.00000000E+00  0.00000000E+00  0.00000000E+00
  0.00000000E+00  0.00000000E+00  0.00000000E+00
  0.00000000E+00  0.00000000E+00  0.00000000E+00
  0.00000000E+00  0.00000000E+00  0.00000000E+00
  0.00000000E+00  0.00000000E+00  0.00000000E+00
  0.00000000E+00  0.00000000E+00  0.00000000E+00
  0.00000000E+00  0.00000000E+00  0.00000000E+00
  0.00000000E+00  0.00000000E+00  0.00000000E+00
  0.00000000E+00  0.00000000E+00  0.00000000E+00
