Pt Pd Pt Pd Pt Pd Pt Pd Pt Pd Pt Pd Pt Pd Pt Pd Pt Pd  O 
 1.0000000000000000
    12.7075573860596833    0.0000000000000000    0.0000000000000000
     0.0000000000000000    6.2067399999999999    0.0000000000000000
     0.0000000000000000    0.0000000000000000   25.4679351630495638
 Pt  Pd  Pt  Pd  Pt  Pd  Pt  Pd  Pt  Pd  Pt  Pd  Pt  Pd  Pt  Pd  Pt  Pd  O  
   5   3   4   2   1   1   1   1   1   2   3   2   1   1   1   1   1   1  56
Cartesian
  3.1768893465149199  1.5516849999999993  0.1000000000000005
  0.0000000000000000  0.0000000000000000  0.1000000000000005
  3.1768893465149199  4.6550549999999982  0.1000000000000005
  0.0000000000000000  3.1033699999999995  0.1000000000000005
  9.5306680395447625  1.5516849999999993  0.1000000000000005
  6.3537786930298408  0.0000000000000000  0.1000000000000005
  9.5306680395447625  4.6550549999999982  0.1000000000000005
  6.3537786930298408  3.1033699999999995  0.1000000000000005
  6.3537786930298399  1.5516849999999993  3.2768893465149209
  3.1768893465149199  0.0000000000000000  3.2768893465149209
  6.3537786930298399  4.6550549999999982  3.2768893465149209
  3.1768893465149199  3.1033699999999995  3.2768893465149209
 -0.0000000000000021  1.5516849999999993  3.2768893465149209
  9.5306680395447625  0.0000000000000000  3.2768893465149209
 -0.0000000000000021  4.6550549999999982  3.2768893465149209
  9.5306680395447625  3.1033699999999995  3.2768893465149209
  3.1768893465149199  1.5516849999999993  6.4537786930298422
  6.3537786930298399  0.0000000000000000  6.4537786930298422
  3.1768893465149199  4.6550549999999982  6.4537786930298422
  6.3537786930298399  3.1033699999999995  6.4537786930298422
  9.5306680395447625  1.5516849999999993  6.4537786930298422
 -0.0000000000000021  0.0000000000000000  6.4537786930298422
  9.5306680395447625  4.6550549999999982  6.4537786930298422
 -0.0000000000000021  3.1033699999999995  6.4537786930298422
  0.0000000000000000  1.5516849999999993  9.6306680395447639
  3.1768893465149199  0.0000000000000000  9.6306680395447639
  0.0000000000000000  4.6550549999999982  9.6306680395447639
  3.1768893465149199  3.1033699999999995  9.6306680395447639
  6.3537786930298408  1.5516849999999993  9.6306680395447639
  9.5306680395447625  0.0000000000000000  9.6306680395447639
  6.3537786930298408  4.6550549999999982  9.6306680395447639
  9.5306680395447625  3.1033699999999995  9.6306680395447639
  1.2396222230101221  1.5516849999999993  0.1000000000000005
  5.1141564700197195  1.5516849999999993  0.1000000000000005
  1.2396222230101221  4.6550549999999982  0.1000000000000005
  5.1141564700197195  4.6550549999999982  0.1000000000000005
  7.5934009160399629  1.5516849999999993  0.1000000000000005
 11.4679351630495603  1.5516849999999993  0.1000000000000005
  7.5934009160399629  4.6550549999999982  0.1000000000000005
 11.4679351630495603  4.6550549999999982  0.1000000000000005
  3.1768893465149199  0.0000000000000000  1.3396222230101227
  3.1768893465149199  3.1033699999999995  1.3396222230101227
  9.5306680395447625  0.0000000000000000  1.3396222230101227
  9.5306680395447625  3.1033699999999995  1.3396222230101227
  0.0000000000000000  0.0000000000000000  2.0372671235047992
  0.0000000000000000  3.1033699999999995  2.0372671235047992
  6.3537786930298408  0.0000000000000000  2.0372671235047992
  6.3537786930298408  3.1033699999999995  2.0372671235047992
  4.4165115695250430  1.5516849999999993  3.2768893465149209
  1.9372671235047967  1.5516849999999993  3.2768893465149209
  4.4165115695250430  4.6550549999999982  3.2768893465149209
  1.9372671235047967  4.6550549999999982  3.2768893465149209
 10.7702902625548838  1.5516849999999993  3.2768893465149209
  8.2910458165346377  1.5516849999999993  3.2768893465149209
 10.7702902625548838  4.6550549999999982  3.2768893465149209
  8.2910458165346377  4.6550549999999982  3.2768893465149209
  6.3537786930298399  0.0000000000000000  4.5165115695250444
  6.3537786930298399  3.1033699999999995  4.5165115695250444
 -0.0000000000000021  0.0000000000000000  4.5165115695250444
 -0.0000000000000021  3.1033699999999995  4.5165115695250444
  3.1768893465149222  0.0000000000000000  5.2141564700197200
  3.1768893465149222  3.1033699999999995  5.2141564700197200
  9.5306680395447643  0.0000000000000000  5.2141564700197200
  9.5306680395447643  3.1033699999999995  5.2141564700197200
  1.2396222230101221  1.5516849999999993  6.4537786930298422
  5.1141564700197168  1.5516849999999993  6.4537786930298422
  1.2396222230101221  4.6550549999999982  6.4537786930298422
  5.1141564700197168  4.6550549999999982  6.4537786930298422
  7.5934009160399629  1.5516849999999993  6.4537786930298422
 11.4679351630495603  1.5516849999999993  6.4537786930298422
  7.5934009160399629  4.6550549999999982  6.4537786930298422
 11.4679351630495603  4.6550549999999982  6.4537786930298422
  3.1768893465149199  0.0000000000000000  7.6934009160399652
  3.1768893465149199  3.1033699999999995  7.6934009160399652
  9.5306680395447625  0.0000000000000000  7.6934009160399652
  9.5306680395447625  3.1033699999999995  7.6934009160399652
  6.3537786930298399  0.0000000000000000  8.3910458165346409
  6.3537786930298399  3.1033699999999995  8.3910458165346409
 -0.0000000000000021  0.0000000000000000  8.3910458165346409
 -0.0000000000000021  3.1033699999999995  8.3910458165346409
  4.4165115695250430  1.5516849999999993  9.6306680395447639
  1.9372671235047985  1.5516849999999993  9.6306680395447639
  4.4165115695250430  4.6550549999999982  9.6306680395447639
  1.9372671235047985  4.6550549999999982  9.6306680395447639
 10.7702902625548838  1.5516849999999993  9.6306680395447639
  8.2910458165346395  1.5516849999999993  9.6306680395447639
 10.7702902625548838  4.6550549999999982  9.6306680395447639
  8.2910458165346395  4.6550549999999982  9.6306680395447639
