 O Ru 
 1.0000000000000000
     6.3537786930298417    0.0000000000000000    0.0000000000000000
     0.0000000000000000    6.2067399999999999    0.0000000000000000
     0.0000000000000000    0.0000000000000000   31.4679351630495638
 O   Ru 
  30  16
Cartesian
  1.2396222230101221  1.5516849999999993  0.0999999999999997
  5.1141564700197195  1.5516849999999993  0.0999999999999997
  1.2396222230101221  4.6550549999999982  0.0999999999999997
  5.1141564700197195  4.6550549999999982  0.0999999999999997
  3.1768893465149199  0.0000000000000000  1.3396222230101227
  3.1768893465149199  3.1033699999999991  1.3396222230101227
  0.0000000000000000  0.0000000000000000  2.0372671235047992
  0.0000000000000000  3.1033699999999991  2.0372671235047992
  1.9372671235047967  1.5516849999999993  3.2768893465149187
  1.9372671235047967  4.6550549999999982  3.2768893465149187
  4.4165115695250430  1.5516849999999993  3.2768893465149205
  4.4165115695250430  4.6550549999999982  3.2768893465149205
 -0.0000000000000014  0.0000000000000000  4.5165115695250417
 -0.0000000000000014  3.1033699999999991  4.5165115695250417
  3.1768893465149222  0.0000000000000000  5.2141564700197183
  3.1768893465149222  3.1033699999999991  5.2141564700197183
  1.2396222230101221  1.5516849999999993  6.4537786930298413
  5.1141564700197168  1.5516849999999993  6.4537786930298413
  1.2396222230101221  4.6550549999999982  6.4537786930298413
  5.1141564700197168  4.6550549999999982  6.4537786930298413
  3.1768893465149199  0.0000000000000000  7.6934009160399608
  3.1768893465149199  3.1033699999999991  7.6934009160399608
 -0.0000000000000028  0.0000000000000000  8.3910458165346409
 -0.0000000000000028  3.1033699999999991  8.3910458165346409
  4.4165115695250430  1.5516849999999993  9.6306680395447639
  1.9372671235047985  1.5516849999999993  9.6306680395447639
  4.4165115695250430  4.6550549999999982  9.6306680395447639
  1.9372671235047985  4.6550549999999982  9.6306680395447639
  0.0000000000000000  0.0000000000000000 10.8702902625548870
  0.0000000000000000  3.1033699999999991 10.8702902625548870
  3.1768893465149199  1.5516849999999993  0.0999999999999997
  0.0000000000000000  0.0000000000000000  0.0999999999999997
  3.1768893465149199  4.6550549999999982  0.0999999999999997
  0.0000000000000000  3.1033699999999991  0.0999999999999997
 -0.0000000000000014  1.5516849999999993  3.2768893465149205
  3.1768893465149199  0.0000000000000000  3.2768893465149205
 -0.0000000000000014  4.6550549999999982  3.2768893465149205
  3.1768893465149199  3.1033699999999991  3.2768893465149205
  3.1768893465149199  1.5516849999999993  6.4537786930298413
 -0.0000000000000014  0.0000000000000000  6.4537786930298413
  3.1768893465149199  4.6550549999999982  6.4537786930298413
 -0.0000000000000014  3.1033699999999991  6.4537786930298413
  0.0000000000000000  1.5516849999999993  9.6306680395447639
  3.1768893465149199  0.0000000000000000  9.6306680395447639
  0.0000000000000000  4.6550549999999982  9.6306680395447639
  3.1768893465149199  3.1033699999999991  9.6306680395447639
